VolumetricData
   1.00000000000000
     3.943035    0.000000    0.000000
     0.000000    6.165266    0.000000
     0.000000    0.000000    7.856314
Li   H    S    
     4     4     4
Direct
  0.499273  0.250040  0.248587
  0.499273  0.749960  0.248587
  0.500727  0.749960  0.748587
  0.500727  0.250040  0.748587
  0.013507  0.000000  0.933768
  0.986493  0.000000  0.433768
  0.875431  0.500000  0.499636
  0.124569  0.500000  0.999636
  0.002339  0.000000  0.762256
  0.997661  0.000000  0.262256
  0.533380  0.500000  0.499775
  0.466620  0.500000  0.999775
