VolumetricData
   1.00000000000000
    -2.780560    2.780560    5.653922
     2.780560   -2.780560    5.653922
     2.780560    2.780560   -5.653922
Li   Sm   S    
     2     2     4
Direct
  0.500000  0.500000  0.000000
  0.250000  0.750000  0.500000
  0.000000  0.000000  0.000000
  0.750000  0.250000  0.500000
  0.752891  0.752891  0.000000
  0.502891  0.002891  0.500000
  0.247109  0.247109  0.000000
  0.997109  0.497109  0.500000
