VolumetricData
   1.00000000000000
    -2.699041    2.699041    5.500742
     2.699041   -2.699041    5.500742
     2.699041    2.699041   -5.500742
Li   Er   S    
     2     2     4
Direct
  0.000000  0.000000  0.000000
  0.750000  0.250000  0.500000
  0.250000  0.750000  0.500000
  0.500000  0.500000  0.000000
  0.745508  0.745508  0.000000
  0.254492  0.254492  0.000000
  0.004492  0.504492  0.500000
  0.495508  0.995508  0.500000
