VolumetricData
   1.00000000000000
    -2.724731    2.724731    5.568232
     2.724731   -2.724731    5.568232
     2.724731    2.724731   -5.568232
Li   Y    S    
     2     2     4
Direct
  0.500000  0.500000  0.000000
  0.250000  0.750000  0.500000
  0.000000  0.000000  0.000000
  0.750000  0.250000  0.500000
  0.754434  0.754434  0.000000
  0.504434  0.004434  0.500000
  0.245566  0.245566  0.000000
  0.995566  0.495566  0.500000
