VolumetricData
   1.00000000000000
     0.000000    2.511647    2.511647
     2.511647    0.000000    2.511647
     2.511647    2.511647    0.000000
Li   S    
     1     1
Direct
  0.500000  0.500000  0.500000
  0.000000  0.000000  0.000000
