VolumetricData
   1.00000000000000
    -5.083466    5.083466    2.382237
     5.083466   -5.083466    2.382237
     5.083466    5.083466   -2.382237
Li   Cu   S    
     4     4     4
Direct
  0.155912  0.500000  0.655912
  0.500000  0.155912  0.655912
  0.500000  0.844088  0.344088
  0.844088  0.500000  0.344088
  0.854834  0.145166  0.000000
  0.854834  0.854834  0.709668
  0.145166  0.145166  0.290332
  0.145166  0.854834  0.000000
  0.702054  0.000000  0.702054
  0.000000  0.702054  0.702054
  0.000000  0.297946  0.297946
  0.297946  0.000000  0.297946
