VolumetricData
   1.00000000000000
    -2.817844    2.817844    5.675613
     2.817844   -2.817844    5.675613
     2.817844    2.817844   -5.675613
Li   Nd   S    
     2     2     4
Direct
  0.500000  0.500000  0.000000
  0.250000  0.750000  0.500000
  0.000000  0.000000  0.000000
  0.750000  0.250000  0.500000
  0.750564  0.750564  0.000000
  0.249436  0.249436  0.000000
  0.999436  0.499436  0.500000
  0.500564  0.000564  0.500000
