VolumetricData
   1.00000000000000
     3.954113    0.000000    0.000000
     0.000000    6.586220    0.000000
     0.000000    0.000000    7.526810
Li   Cu   S    
     4     4     4
Direct
  0.750000  0.809667  0.554356
  0.750000  0.690333  0.054356
  0.250000  0.190333  0.445644
  0.250000  0.309667  0.945644
  0.750000  0.168689  0.737798
  0.750000  0.331311  0.237798
  0.250000  0.668689  0.762202
  0.250000  0.831311  0.262202
  0.750000  0.508384  0.768548
  0.750000  0.991616  0.268548
  0.250000  0.008384  0.731452
  0.250000  0.491616  0.231452
