VolumetricData
   1.00000000000000
    -2.719935    2.719935    5.571320
     2.719935   -2.719935    5.571320
     2.719935    2.719935   -5.571320
Li   Dy   S    
     2     2     4
Direct
  0.000000  0.000000  0.000000
  0.750000  0.250000  0.500000
  0.250000  0.750000  0.500000
  0.500000  0.500000  0.000000
  0.494979  0.994979  0.500000
  0.005021  0.505021  0.500000
  0.744979  0.744979  0.000000
  0.255021  0.255021  0.000000
