VolumetricData
   1.00000000000000
     6.266678   -1.937501    0.000000
     6.266678    1.937501    0.000000
     5.667651    0.000000    3.301954
Li   Er   S    
     1     1     2
Direct
  0.500000  0.500000  0.500000
  0.000000  0.000000  0.000000
  0.749754  0.749754  0.749754
  0.250246  0.250246  0.250246
