VolumetricData
   1.00000000000000
     2.761793   -2.816207    0.000000
     2.761793    2.816207    0.000000
     0.000000    0.000000    6.174690
Li   H    S    
     2     2     2
Direct
  0.501579  0.501579  0.000000
  0.501579  0.501579  0.500000
  0.133294  0.983815  0.750000
  0.983815  0.133294  0.250000
  0.998790  0.474944  0.250000
  0.474944  0.998790  0.750000
