VolumetricData
   1.00000000000000
     4.004341    0.000000    0.000000
     0.000000    4.004341    0.000000
     0.000000    0.000000    5.447031
Li   Bi   S    
     1     1     2
Direct
  0.000000  0.000000  0.000000
  0.500000  0.500000  0.500000
  0.500000  0.500000  0.000000
  0.000000  0.000000  0.500000
